5 5
1 51 0 22 4 88 2 53 3 36
3 68 2 36 1 52 4 53 0 82
3 50 1 80 4 41 0 18 2 22
0 66 4 21 3 44 2 47 1 39
4 29 3 54 0 90 2 85 1 17
-1
0 2 3 4 5
0 1 2 3 5
0 1 4 5
0 1 3 5
0 1 2 4 5
-2
89 221 269 315
106 163 178 399
68 270 243
90 142 324
30 83 398 319

377 7
15 1 22 9 13
0 7 11 19 24
6 18 3 23 14
5 21 17 10 4
20 16 2 8 12
